105293
86 89 73 38 5 81 28 12 80 84 47 36 22 72 0 1 46 33 92 21 39 59 29 60 56 61 27 88 34 44 75 51 24 85 76 18 37 54 65 26 94 52 58 19 70 31 97 32 87 14 53 62 91 8 99 43 93 69 77 50 11 79 67 16 3 90 55 74 13 2 98 15 6 10 96 40 42 57 63 49 71 78 66 35 23 64 7 20 9 83 48 82 95 68 17 45 30 41 4 25 
